80 80
80 65 1
73 93 1
99 33 1
73 79 1
94 51 1
77 94 1
18 25 1
84 87 1
70 100 1
94 57 1
50 28 1
7 6 1
57 59 1
22 32 1
94 93 1
91 86 1
7 31 1
61 68 1
99 70 1
86 79 1
68 63 1
63 67 1
65 58 1
94 83 1
91 57 1
76 77 1
94 59 1
62 99 1
75 63 1
1 99 1
84 71 1
95 26 1
71 82 1
88 82 1
36 97 1
85 65 1
79 61 1
86 76 1
100 80 1
89 66 1
99 3 1
96 83 1
75 77 1
5 85 1
79 55 1
17 2 1
61 86 1
82 52 1
72 69 1
100 81 1
72 7 1
80 38 1
27 46 1
95 73 1
70 88 1
22 90 1
92 84 1
51 76 1
92 82 1
84 95 1
70 83 1
69 91 1
76 87 1
57 65 1
59 95 1
100 18 1
21 5 1
94 98 1
60 67 1
91 55 1
78 83 1
41 95 1
73 51 1
94 55 1
97 73 1
100 48 1
98 98 1
9 78 1
76 75 1
70 65 1
100 100 
100 100 
100 100 
100 100 
100 100 
100 100 
100 100 
100 100 
100 100 
100 100 
100 100 
100 100 
100 100 
100 100 
100 100 
100 100 
100 100 
100 100 
100 100 
100 100 
100 100 
100 100 
100 100 
100 100 
100 100 
100 100 
100 100 
100 100 
100 100 
100 100 
100 100 
100 100 
100 100 
100 100 
100 100 
100 100 
100 100 
100 100 
100 100 
100 100 
100 100 
100 100 
100 100 
100 100 
100 100 
100 100 
100 100 
100 100 
100 100 
100 100 
100 100 
100 100 
100 100 
100 100 
100 100 
100 100 
100 100 
100 100 
100 100 
100 100 
100 100 
100 100 
100 100 
100 100 
100 100 
100 100 
100 100 
100 100 
100 100 
100 100 
100 100 
100 100 
100 100 
100 100 
100 100 
100 100 
100 100 
100 100 
100 100 
100 100 
